3 3 2
20 0 21 2 26 0 17 1 23 2 48 0 32 2 7 1 38 2 23 1 13 0 3 1 8 0 44 1 25 2 10 0 12 2 26 0 47 1 9 0 35 
20 2 13 1 9 0 2 1 13 2 44 0 27 1 9 2 23 0 26 2 13 1 19 0 23 1 31 2 21 1 32 0 40 2 36 1 0 2 24 0 23 
20 1 40 2 22 1 46 2 32 0 42 2 24 1 21 2 25 0 26 1 42 0 43 2 5 1 12 2 21 0 5 2 40 0 19 2 38 0 28 2 22 

-------------
